c Standarized MaxSat Instance
c{
c "sha1sum": "f4d9879f770c51de38e93f924c66a4b7c04f75fe",
c "nvars": 611,
c "ncls": 897,
c "nhards": 0,
c "nhard_len_stats":
c    { "min": 0, "max": 0, "ave": 0.00,
c      "stddev": 0.00 },
c "nsofts": 897,
c "nsoft_len_stats":
c    { "min": 1, "max": 3, "ave": 2.27,
c      "stddev": 0.54 },
c "nsoft_wts": 2,
c "soft_wt_stats":
c    { "min": 1, "max": 41, "ave": 39.22,
c      "stddev": 8.26 }
c}
c------------------------------------------------------------
c This instance encodes a supposedly trivial MaxSAT formula.
c The hard part of the formula encodes a cardinality constraint:
c     x1 + ... + x40 <= 12
c Cardinality encoding used is 'cardn'.
c The soft part prefers all the variables to be set to true:
c     x1 = 1, ..., x40 = 1
c As a result, the optimum cost for this formula is 28.
c
p wcnf 611 897 35178
1 1 0
1 2 0
1 3 0
1 4 0
1 5 0
1 6 0
1 7 0
1 8 0
1 9 0
1 10 0
1 11 0
1 12 0
1 13 0
1 14 0
1 15 0
1 16 0
1 17 0
1 18 0
1 19 0
1 20 0
1 21 0
1 22 0
1 23 0
1 24 0
1 25 0
1 26 0
1 27 0
1 28 0
1 29 0
1 30 0
1 31 0
1 32 0
1 33 0
1 34 0
1 35 0
1 36 0
1 37 0
1 38 0
1 39 0
1 40 0
41 -41 0
41 -1 42 0
41 -2 42 0
41 -1 -2 43 0
41 -3 44 0
41 -4 44 0
41 -3 -4 45 0
41 -42 46 0
41 -44 46 0
41 -42 -44 47 0
41 -43 48 0
41 -45 48 0
41 -43 -45 49 0
41 -47 50 0
41 -48 50 0
41 -47 -48 51 0
41 -5 52 0
41 -6 52 0
41 -5 -6 53 0
41 -7 54 0
41 -8 54 0
41 -7 -8 55 0
41 -52 56 0
41 -54 56 0
41 -52 -54 57 0
41 -53 58 0
41 -55 58 0
41 -53 -55 59 0
41 -57 60 0
41 -58 60 0
41 -57 -58 61 0
41 -46 62 0
41 -56 62 0
41 -46 -56 63 0
41 -51 64 0
41 -61 64 0
41 -51 -61 65 0
41 -63 66 0
41 -64 66 0
41 -63 -64 67 0
41 -50 68 0
41 -60 68 0
41 -50 -60 69 0
41 -49 70 0
41 -59 70 0
41 -49 -59 71 0
41 -69 72 0
41 -70 72 0
41 -69 -70 73 0
41 -66 74 0
41 -68 74 0
41 -66 -68 75 0
41 -67 76 0
41 -72 76 0
41 -67 -72 77 0
41 -65 78 0
41 -73 78 0
41 -65 -73 79 0
41 -9 80 0
41 -10 80 0
41 -9 -10 81 0
41 -11 82 0
41 -12 82 0
41 -11 -12 83 0
41 -80 84 0
41 -82 84 0
41 -80 -82 85 0
41 -81 86 0
41 -83 86 0
41 -81 -83 87 0
41 -85 88 0
41 -86 88 0
41 -85 -86 89 0
41 -13 90 0
41 -14 90 0
41 -13 -14 91 0
41 -15 92 0
41 -16 92 0
41 -15 -16 93 0
41 -90 94 0
41 -92 94 0
41 -90 -92 95 0
41 -91 96 0
41 -93 96 0
41 -91 -93 97 0
41 -95 98 0
41 -96 98 0
41 -95 -96 99 0
41 -84 100 0
41 -94 100 0
41 -84 -94 101 0
41 -89 102 0
41 -99 102 0
41 -89 -99 103 0
41 -101 104 0
41 -102 104 0
41 -101 -102 105 0
41 -88 106 0
41 -98 106 0
41 -88 -98 107 0
41 -87 108 0
41 -97 108 0
41 -87 -97 109 0
41 -107 110 0
41 -108 110 0
41 -107 -108 111 0
41 -104 112 0
41 -106 112 0
41 -104 -106 113 0
41 -105 114 0
41 -110 114 0
41 -105 -110 115 0
41 -103 116 0
41 -111 116 0
41 -103 -111 117 0
41 -62 118 0
41 -100 118 0
41 -62 -100 119 0
41 -77 120 0
41 -115 120 0
41 -77 -115 121 0
41 -119 122 0
41 -120 122 0
41 -119 -120 123 0
41 -75 124 0
41 -113 124 0
41 -75 -113 125 0
41 -79 126 0
41 -117 126 0
41 -79 -117 127 0
41 -125 128 0
41 -126 128 0
41 -125 -126 129 0
41 -122 130 0
41 -124 130 0
41 -122 -124 131 0
41 -123 132 0
41 -128 132 0
41 -123 -128 133 0
41 -121 134 0
41 -129 134 0
41 -121 -129 135 0
41 -74 136 0
41 -112 136 0
41 -74 -112 137 0
41 -78 138 0
41 -116 138 0
41 -78 -116 139 0
41 -137 140 0
41 -138 140 0
41 -137 -138 141 0
41 -76 142 0
41 -114 142 0
41 -76 -114 143 0
41 -71 144 0
41 -109 144 0
41 -71 -109 145 0
41 -143 146 0
41 -144 146 0
41 -143 -144 147 0
41 -140 148 0
41 -142 148 0
41 -140 -142 149 0
41 -141 150 0
41 -146 150 0
41 -141 -146 151 0
41 -139 152 0
41 -147 152 0
41 -139 -147 153 0
41 -130 154 0
41 -136 154 0
41 -130 -136 155 0
41 -131 156 0
41 -148 156 0
41 -131 -148 157 0
41 -132 158 0
41 -149 158 0
41 -132 -149 159 0
41 -133 160 0
41 -150 160 0
41 -133 -150 161 0
41 -134 162 0
41 -151 162 0
41 -134 -151 163 0
41 -135 164 0
41 -152 164 0
41 -135 -152 165 0
41 -127 166 0
41 -153 166 0
41 -127 -153 167 0
41 -17 168 0
41 -18 168 0
41 -17 -18 169 0
41 -19 170 0
41 -20 170 0
41 -19 -20 171 0
41 -168 172 0
41 -170 172 0
41 -168 -170 173 0
41 -169 174 0
41 -171 174 0
41 -169 -171 175 0
41 -173 176 0
41 -174 176 0
41 -173 -174 177 0
41 -21 178 0
41 -22 178 0
41 -21 -22 179 0
41 -23 180 0
41 -24 180 0
41 -23 -24 181 0
41 -178 182 0
41 -180 182 0
41 -178 -180 183 0
41 -179 184 0
41 -181 184 0
41 -179 -181 185 0
41 -183 186 0
41 -184 186 0
41 -183 -184 187 0
41 -172 188 0
41 -182 188 0
41 -172 -182 189 0
41 -177 190 0
41 -187 190 0
41 -177 -187 191 0
41 -189 192 0
41 -190 192 0
41 -189 -190 193 0
41 -176 194 0
41 -186 194 0
41 -176 -186 195 0
41 -175 196 0
41 -185 196 0
41 -175 -185 197 0
41 -195 198 0
41 -196 198 0
41 -195 -196 199 0
41 -192 200 0
41 -194 200 0
41 -192 -194 201 0
41 -193 202 0
41 -198 202 0
41 -193 -198 203 0
41 -191 204 0
41 -199 204 0
41 -191 -199 205 0
41 -25 206 0
41 -26 206 0
41 -25 -26 207 0
41 -27 208 0
41 -28 208 0
41 -27 -28 209 0
41 -206 210 0
41 -208 210 0
41 -206 -208 211 0
41 -207 212 0
41 -209 212 0
41 -207 -209 213 0
41 -211 214 0
41 -212 214 0
41 -211 -212 215 0
41 -29 216 0
41 -30 216 0
41 -29 -30 217 0
41 -31 218 0
41 -32 218 0
41 -31 -32 219 0
41 -216 220 0
41 -218 220 0
41 -216 -218 221 0
41 -217 222 0
41 -219 222 0
41 -217 -219 223 0
41 -221 224 0
41 -222 224 0
41 -221 -222 225 0
41 -210 226 0
41 -220 226 0
41 -210 -220 227 0
41 -215 228 0
41 -225 228 0
41 -215 -225 229 0
41 -227 230 0
41 -228 230 0
41 -227 -228 231 0
41 -214 232 0
41 -224 232 0
41 -214 -224 233 0
41 -213 234 0
41 -223 234 0
41 -213 -223 235 0
41 -233 236 0
41 -234 236 0
41 -233 -234 237 0
41 -230 238 0
41 -232 238 0
41 -230 -232 239 0
41 -231 240 0
41 -236 240 0
41 -231 -236 241 0
41 -229 242 0
41 -237 242 0
41 -229 -237 243 0
41 -188 244 0
41 -226 244 0
41 -188 -226 245 0
41 -203 246 0
41 -241 246 0
41 -203 -241 247 0
41 -245 248 0
41 -246 248 0
41 -245 -246 249 0
41 -201 250 0
41 -239 250 0
41 -201 -239 251 0
41 -205 252 0
41 -243 252 0
41 -205 -243 253 0
41 -251 254 0
41 -252 254 0
41 -251 -252 255 0
41 -248 256 0
41 -250 256 0
41 -248 -250 257 0
41 -249 258 0
41 -254 258 0
41 -249 -254 259 0
41 -247 260 0
41 -255 260 0
41 -247 -255 261 0
41 -200 262 0
41 -238 262 0
41 -200 -238 263 0
41 -204 264 0
41 -242 264 0
41 -204 -242 265 0
41 -263 266 0
41 -264 266 0
41 -263 -264 267 0
41 -202 268 0
41 -240 268 0
41 -202 -240 269 0
41 -197 270 0
41 -235 270 0
41 -197 -235 271 0
41 -269 272 0
41 -270 272 0
41 -269 -270 273 0
41 -266 274 0
41 -268 274 0
41 -266 -268 275 0
41 -267 276 0
41 -272 276 0
41 -267 -272 277 0
41 -265 278 0
41 -273 278 0
41 -265 -273 279 0
41 -256 280 0
41 -262 280 0
41 -256 -262 281 0
41 -257 282 0
41 -274 282 0
41 -257 -274 283 0
41 -258 284 0
41 -275 284 0
41 -258 -275 285 0
41 -259 286 0
41 -276 286 0
41 -259 -276 287 0
41 -260 288 0
41 -277 288 0
41 -260 -277 289 0
41 -261 290 0
41 -278 290 0
41 -261 -278 291 0
41 -253 292 0
41 -279 292 0
41 -253 -279 293 0
41 -33 294 0
41 -34 294 0
41 -33 -34 295 0
41 -35 296 0
41 -36 296 0
41 -35 -36 297 0
41 -294 298 0
41 -296 298 0
41 -294 -296 299 0
41 -295 300 0
41 -297 300 0
41 -295 -297 301 0
41 -299 302 0
41 -300 302 0
41 -299 -300 303 0
41 -37 304 0
41 -38 304 0
41 -37 -38 305 0
41 -39 306 0
41 -40 306 0
41 -39 -40 307 0
41 -304 308 0
41 -306 308 0
41 -304 -306 309 0
41 -305 310 0
41 -307 310 0
41 -305 -307 311 0
41 -309 312 0
41 -310 312 0
41 -309 -310 313 0
41 -298 314 0
41 -308 314 0
41 -298 -308 315 0
41 -303 316 0
41 -313 316 0
41 -303 -313 317 0
41 -315 318 0
41 -316 318 0
41 -315 -316 319 0
41 -302 320 0
41 -312 320 0
41 -302 -312 321 0
41 -301 322 0
41 -311 322 0
41 -301 -311 323 0
41 -321 324 0
41 -322 324 0
41 -321 -322 325 0
41 -318 326 0
41 -320 326 0
41 -318 -320 327 0
41 -319 328 0
41 -324 328 0
41 -319 -324 329 0
41 -317 330 0
41 -325 330 0
41 -317 -325 331 0
41 -41 332 0
41 -41 332 0
41 -41 -41 333 0
41 -41 334 0
41 -41 334 0
41 -41 -41 335 0
41 -332 336 0
41 -334 336 0
41 -332 -334 337 0
41 -333 338 0
41 -335 338 0
41 -333 -335 339 0
41 -337 340 0
41 -338 340 0
41 -337 -338 341 0
41 -41 342 0
41 -41 342 0
41 -41 -41 343 0
41 -41 344 0
41 -41 344 0
41 -41 -41 345 0
41 -342 346 0
41 -344 346 0
41 -342 -344 347 0
41 -343 348 0
41 -345 348 0
41 -343 -345 349 0
41 -347 350 0
41 -348 350 0
41 -347 -348 351 0
41 -336 352 0
41 -346 352 0
41 -336 -346 353 0
41 -341 354 0
41 -351 354 0
41 -341 -351 355 0
41 -353 356 0
41 -354 356 0
41 -353 -354 357 0
41 -340 358 0
41 -350 358 0
41 -340 -350 359 0
41 -339 360 0
41 -349 360 0
41 -339 -349 361 0
41 -359 362 0
41 -360 362 0
41 -359 -360 363 0
41 -356 364 0
41 -358 364 0
41 -356 -358 365 0
41 -357 366 0
41 -362 366 0
41 -357 -362 367 0
41 -355 368 0
41 -363 368 0
41 -355 -363 369 0
41 -314 370 0
41 -352 370 0
41 -314 -352 371 0
41 -329 372 0
41 -367 372 0
41 -329 -367 373 0
41 -371 374 0
41 -372 374 0
41 -371 -372 375 0
41 -327 376 0
41 -365 376 0
41 -327 -365 377 0
41 -331 378 0
41 -369 378 0
41 -331 -369 379 0
41 -377 380 0
41 -378 380 0
41 -377 -378 381 0
41 -374 382 0
41 -376 382 0
41 -374 -376 383 0
41 -375 384 0
41 -380 384 0
41 -375 -380 385 0
41 -373 386 0
41 -381 386 0
41 -373 -381 387 0
41 -326 388 0
41 -364 388 0
41 -326 -364 389 0
41 -330 390 0
41 -368 390 0
41 -330 -368 391 0
41 -389 392 0
41 -390 392 0
41 -389 -390 393 0
41 -328 394 0
41 -366 394 0
41 -328 -366 395 0
41 -323 396 0
41 -361 396 0
41 -323 -361 397 0
41 -395 398 0
41 -396 398 0
41 -395 -396 399 0
41 -392 400 0
41 -394 400 0
41 -392 -394 401 0
41 -393 402 0
41 -398 402 0
41 -393 -398 403 0
41 -391 404 0
41 -399 404 0
41 -391 -399 405 0
41 -382 406 0
41 -388 406 0
41 -382 -388 407 0
41 -383 408 0
41 -400 408 0
41 -383 -400 409 0
41 -384 410 0
41 -401 410 0
41 -384 -401 411 0
41 -385 412 0
41 -402 412 0
41 -385 -402 413 0
41 -386 414 0
41 -403 414 0
41 -386 -403 415 0
41 -387 416 0
41 -404 416 0
41 -387 -404 417 0
41 -379 418 0
41 -405 418 0
41 -379 -405 419 0
41 -244 420 0
41 -370 420 0
41 -244 -370 421 0
41 -287 422 0
41 -413 422 0
41 -287 -413 423 0
41 -421 424 0
41 -422 424 0
41 -421 -422 425 0
41 -283 426 0
41 -409 426 0
41 -283 -409 427 0
41 -291 428 0
41 -417 428 0
41 -291 -417 429 0
41 -427 430 0
41 -428 430 0
41 -427 -428 431 0
41 -424 432 0
41 -426 432 0
41 -424 -426 433 0
41 -425 434 0
41 -430 434 0
41 -425 -430 435 0
41 -281 436 0
41 -407 436 0
41 -281 -407 437 0
41 -289 438 0
41 -415 438 0
41 -289 -415 439 0
41 -437 440 0
41 -438 440 0
41 -437 -438 441 0
41 -285 442 0
41 -411 442 0
41 -285 -411 443 0
41 -293 444 0
41 -419 444 0
41 -293 -419 445 0
41 -443 446 0
41 -444 446 0
41 -443 -444 447 0
41 -440 448 0
41 -442 448 0
41 -440 -442 449 0
41 -441 450 0
41 -446 450 0
41 -441 -446 451 0
41 -432 452 0
41 -436 452 0
41 -432 -436 453 0
41 -433 454 0
41 -448 454 0
41 -433 -448 455 0
41 -434 456 0
41 -449 456 0
41 -434 -449 457 0
41 -435 458 0
41 -450 458 0
41 -435 -450 459 0
41 -280 460 0
41 -406 460 0
41 -280 -406 461 0
41 -288 462 0
41 -414 462 0
41 -288 -414 463 0
41 -461 464 0
41 -462 464 0
41 -461 -462 465 0
41 -284 466 0
41 -410 466 0
41 -284 -410 467 0
41 -292 468 0
41 -418 468 0
41 -292 -418 469 0
41 -467 470 0
41 -468 470 0
41 -467 -468 471 0
41 -464 472 0
41 -466 472 0
41 -464 -466 473 0
41 -465 474 0
41 -470 474 0
41 -465 -470 475 0
41 -282 476 0
41 -408 476 0
41 -282 -408 477 0
41 -290 478 0
41 -416 478 0
41 -290 -416 479 0
41 -477 480 0
41 -478 480 0
41 -477 -478 481 0
41 -286 482 0
41 -412 482 0
41 -286 -412 483 0
41 -271 484 0
41 -397 484 0
41 -271 -397 485 0
41 -483 486 0
41 -484 486 0
41 -483 -484 487 0
41 -480 488 0
41 -482 488 0
41 -480 -482 489 0
41 -481 490 0
41 -486 490 0
41 -481 -486 491 0
41 -472 492 0
41 -476 492 0
41 -472 -476 493 0
41 -473 494 0
41 -488 494 0
41 -473 -488 495 0
41 -474 496 0
41 -489 496 0
41 -474 -489 497 0
41 -475 498 0
41 -490 498 0
41 -475 -490 499 0
41 -452 500 0
41 -460 500 0
41 -452 -460 501 0
41 -453 502 0
41 -492 502 0
41 -453 -492 503 0
41 -454 504 0
41 -493 504 0
41 -454 -493 505 0
41 -455 506 0
41 -494 506 0
41 -455 -494 507 0
41 -456 508 0
41 -495 508 0
41 -456 -495 509 0
41 -457 510 0
41 -496 510 0
41 -457 -496 511 0
41 -458 512 0
41 -497 512 0
41 -458 -497 513 0
41 -459 514 0
41 -498 514 0
41 -459 -498 515 0
41 -118 516 0
41 -420 516 0
41 -118 -420 517 0
41 -161 518 0
41 -507 518 0
41 -161 -507 519 0
41 -517 520 0
41 -518 520 0
41 -517 -518 521 0
41 -157 522 0
41 -503 522 0
41 -157 -503 523 0
41 -165 524 0
41 -511 524 0
41 -165 -511 525 0
41 -523 526 0
41 -524 526 0
41 -523 -524 527 0
41 -520 528 0
41 -522 528 0
41 -520 -522 529 0
41 -521 530 0
41 -526 530 0
41 -521 -526 531 0
41 -155 532 0
41 -501 532 0
41 -155 -501 533 0
41 -163 534 0
41 -509 534 0
41 -163 -509 535 0
41 -533 536 0
41 -534 536 0
41 -533 -534 537 0
41 -159 538 0
41 -505 538 0
41 -159 -505 539 0
41 -167 540 0
41 -513 540 0
41 -167 -513 541 0
41 -539 542 0
41 -540 542 0
41 -539 -540 543 0
41 -536 544 0
41 -538 544 0
41 -536 -538 545 0
41 -537 546 0
41 -542 546 0
41 -537 -542 547 0
41 -528 548 0
41 -532 548 0
41 -528 -532 549 0
41 -529 550 0
41 -544 550 0
41 -529 -544 551 0
41 -530 552 0
41 -545 552 0
41 -530 -545 553 0
41 -531 554 0
41 -546 554 0
41 -531 -546 555 0
41 -154 556 0
41 -500 556 0
41 -154 -500 557 0
41 -162 558 0
41 -508 558 0
41 -162 -508 559 0
41 -557 560 0
41 -558 560 0
41 -557 -558 561 0
41 -158 562 0
41 -504 562 0
41 -158 -504 563 0
41 -166 564 0
41 -512 564 0
41 -166 -512 565 0
41 -563 566 0
41 -564 566 0
41 -563 -564 567 0
41 -560 568 0
41 -562 568 0
41 -560 -562 569 0
41 -561 570 0
41 -566 570 0
41 -561 -566 571 0
41 -156 572 0
41 -502 572 0
41 -156 -502 573 0
41 -164 574 0
41 -510 574 0
41 -164 -510 575 0
41 -573 576 0
41 -574 576 0
41 -573 -574 577 0
41 -160 578 0
41 -506 578 0
41 -160 -506 579 0
41 -145 580 0
41 -514 580 0
41 -145 -514 581 0
41 -579 582 0
41 -580 582 0
41 -579 -580 583 0
41 -576 584 0
41 -578 584 0
41 -576 -578 585 0
41 -577 586 0
41 -582 586 0
41 -577 -582 587 0
41 -568 588 0
41 -572 588 0
41 -568 -572 589 0
41 -569 590 0
41 -584 590 0
41 -569 -584 591 0
41 -570 592 0
41 -585 592 0
41 -570 -585 593 0
41 -571 594 0
41 -586 594 0
41 -571 -586 595 0
41 -548 596 0
41 -556 596 0
41 -548 -556 597 0
41 -549 598 0
41 -588 598 0
41 -549 -588 599 0
41 -550 600 0
41 -589 600 0
41 -550 -589 601 0
41 -551 602 0
41 -590 602 0
41 -551 -590 603 0
41 -552 604 0
41 -591 604 0
41 -552 -591 605 0
41 -553 606 0
41 -592 606 0
41 -553 -592 607 0
41 -554 608 0
41 -593 608 0
41 -554 -593 609 0
41 -555 610 0
41 -594 610 0
41 -555 -594 611 0
41 -607 0
